instances/shortest_path/discrete_knapsack_uncertainty/nohadani_8_15.kp
60680
224

[2.5494477027533424 0.996908305709303 0.31878777973854067 2.4783334338646914 4.132968061577622 1.9985527296599943 2.0371418534037686 2.4652616027210867 2.8301316842385997 0.21089646789183655 0.2535067805154413 4.120388164403207 0.8677613366101485 3.590744109186989 3.061627136676623 3.0632203414532744 0.0448578718924185 2.1194044267623187 3.211723813104313 2.228045386655499 0.6822979524353548 0.7770593545158151 4.043339748254155 1.3296660618431257 3.478302077123243 3.4356254908496946 2.3777097697642517 1.7443339361987815 2.409564554137734 3.276263900858961 4.49117138040343 3.1500208653219244 4.717372399888748 0.13630899146054068 0.15500151926279934 2.931623574906032 3.6030808906135934 2.5804868984722216 4.555109338336309 1.3813358421059578 4.46557211754501 4.600022793920908 4.452873446758411 3.574415315565947 3.6328595381181796 0.09054712735844817]

[43 99 53 14 15 65 84 63 52 53 7 26 99 35 52 76 8 83 76 97 56 71 19 74 20 95 93 43 73 22 37 27 7 76 19 4 87 36 55 70 62 25 97 41 90 74]
